NAME : LPS-n16-m167
COMMENT : (Lartu-Peter-Santi Plot, instance 5367 out of 39200. 16 customers.)
TYPE : CVRP
DIMENSION : 16
EDGE_WEIGHT_TYPE : EUC_2D
CAPACITY : 107
NODE_COORD_SECTION
 1 19 12
 2 50 89
 3 79 29
 4 1 93
 5 1 78
 6 49 36
 7 81 84
 8 53 71
 9 47 18
 10 44 2
 11 97 59
 12 63 30
 13 54 5
 14 85 27
 15 61 26
 16 9 17
DEMAND_SECTION
1 0
2 39
3 22
4 77
5 40
6 10
7 75
8 100
9 62
10 102
11 16
12 26
13 101
14 58
15 51
16 77
DEPOT_SECTION
 1
 -1
EOF
